
Gurobi 6.5.2 (linux64) logging started Tue Sep  6 10:06:42 2016

Optimize a model with 101 rows, 908 columns and 1845 nonzeros
Coefficient statistics:
  Matrix range    [1e+00, 2e+00]
  Objective range [1e+00, 1e+02]
  Bounds range    [1e+00, 1e+00]
  RHS range       [1e+00, 1e+00]
Presolve removed 43 rows and 31 columns
Presolve time: 0.00s
Presolved: 58 rows, 877 columns, 1757 nonzeros
Variable types: 0 continuous, 877 integer (877 binary)

Root relaxation: objective 6.325000e+02, 65 iterations, 0.00 seconds

    Nodes    |    Current Node    |     Objective Bounds      |     Work
 Expl Unexpl |  Obj  Depth IntInf | Incumbent    BestBd   Gap | It/Node Time

     0     0  632.50000    0    4          -  632.50000      -     -    0s
     0     0  636.00000    0   12          -  636.00000      -     -    0s
     0     0  636.75000    0   21          -  636.75000      -     -    0s
     0     0  637.00000    0    4          -  637.00000      -     -    0s
     0     0  637.04167    0   22          -  637.04167      -     -    0s
     0     0  637.04167    0   22          -  637.04167      -     -    0s
     0     2  637.04167    0   22          -  637.04167      -     -    0s
*  172    98              50     693.0000000  637.60000  7.99%   3.4    0s
*  381   117               9     648.0000000  638.16667  1.52%   3.8    0s

Cutting planes:
  Cover: 4
  MIR: 3
  Zero half: 4
  Lazy constraints: 125

Explored 1535 nodes (5391 simplex iterations) in 0.22 seconds
Thread count was 8 (of 8 available processors)

Optimal solution found (tolerance 1.00e-04)
Best objective 6.480000000000e+02, best bound 6.480000000000e+02, gap 0.0%
